\ Model RRP_copy
\ LP format - for model browsing. Use MPS format to capture full model detail.
Maximize
 
Subject To
 R0: x_kij[0,0,2] + x_kij[0,0,3] + x_kij[0,0,4] + x_kij[0,0,8] = 1
 R4: x_kij[0,0,2] + x_kij[0,0,3] + x_kij[0,0,4] + x_kij[0,0,8] = 0
Bounds
Binaries
 x_kij[0,0,2] x_kij[0,0,3] x_kij[0,0,4] x_kij[0,0,8]
End
